NAME : AA30.1119111.tour
COMMENT : Cost = 0_1119111
COMMENT : Found by LKH [Keld Helsgaun] Sun Apr 23 15:14:35 2017
TYPE : TOUR
DIMENSION : 63
TOUR_SECTION
1
17
47
10
40
15
45
19
49
23
53
20
9
50
39
14
44
16
46
8
5
38
35
62
18
48
13
43
11
41
27
57
7
37
6
36
21
51
3
33
30
60
63
31
61
25
55
2
12
42
32
4
34
24
54
29
59
26
56
22
52
28
58
-1
EOF
